100
3728
79 146
17 178
91 167
69 171
12 180
14 60
55 176
95 156
70 171
24 37
94 176
95 131
97 38
42 60
4 117
17 82
61 68
30 151
77 72
95 76
82 64
78 162
91 129
33 184
47 179
59 128
71 111
57 83
17 158
74 46
32 92
72 92
88 39
81 193
53 47
78 46
16 130
45 86
90 39
26 78
98 155
76 150
63 78
5 167
33 33
77 158
93 112
57 196
12 116
33 82
70 179
31 54
52 87
15 167
63 162
8 69
42 27
4 85
59 21
23 106
63 95
74 141
24 165
26 85
44 115
77 36
69 189
44 134
9 145
54 39
47 186
77 191
53 51
55 65
5 117
10 122
35 104
27 54
43 20
100 10
77 176
47 133
88 34
6 100
66 183
65 134
21 174
25 194
34 189
97 52
31 145
34 120
97 160
91 178
62 46
73 39
83 32
21 180
58 56
73 48
